examples/cnf/factorization.cnf
c p : [2, 3, 4, 5, 6, 7, 8, 9, 10, 11, 12, 13]
c q : [14, 15, 16, 17, 18, 19, 20, 21, 22, 23, 24, 25]
p cnf 325 1433
-1 0
-2 -3 -4 -5 -6 -7 -8 -9 -10 -11 -12 -13 0
-14 -15 -16 -17 -18 -19 -20 -21 -22 -23 -24 -25 0
-14 -2 26 0
14 -26 0
2 -26 0
-15 -2 38 0
15 -38 0
2 -38 0
-16 -2 39 0
16 -39 0
2 -39 0
-17 -2 40 0
17 -40 0
2 -40 0
-18 -2 41 0
18 -41 0
2 -41 0
-19 -2 42 0
19 -42 0
2 -42 0
-20 -2 43 0
20 -43 0
2 -43 0
-21 -2 44 0
21 -44 0
2 -44 0
-22 -2 45 0
22 -45 0
2 -45 0
-23 -2 46 0
23 -46 0
2 -46 0
-24 -2 47 0
24 -47 0
2 -47 0
-25 -2 48 0
25 -48 0
2 -48 0
-14 -3 49 0
14 -49 0
3 -49 0
-15 -3 50 0
15 -50 0
3 -50 0
-16 -3 51 0
16 -51 0
3 -51 0
-17 -3 52 0
17 -52 0
3 -52 0
-18 -3 53 0
18 -53 0
3 -53 0
-19 -3 54 0
19 -54 0
3 -54 0
-20 -3 55 0
20 -55 0
3 -55 0
-21 -3 56 0
21 -56 0
3 -56 0
-22 -3 57 0
22 -57 0
3 -57 0
-23 -3 58 0
23 -58 0
3 -58 0
-24 -3 59 0
24 -59 0
3 -59 0
-25 -3 60 0
25 -60 0
3 -60 0
-14 -4 61 0
14 -61 0
4 -61 0
-15 -4 62 0
15 -62 0
4 -62 0
-16 -4 63 0
16 -63 0
4 -63 0
-17 -4 64 0
17 -64 0
4 -64 0
-18 -4 65 0
18 -65 0
4 -65 0
-19 -4 66 0
19 -66 0
4 -66 0
-20 -4 67 0
20 -67 0
4 -67 0
-21 -4 68 0
21 -68 0
4 -68 0
-22 -4 69 0
22 -69 0
4 -69 0
-23 -4 70 0
23 -70 0
4 -70 0
-24 -4 71 0
24 -71 0
4 -71 0
-25 -4 72 0
25 -72 0
4 -72 0
-14 -5 73 0
14 -73 0
5 -73 0
-15 -5 74 0
15 -74 0
5 -74 0
-16 -5 75 0
16 -75 0
5 -75 0
-17 -5 76 0
17 -76 0
5 -76 0
-18 -5 77 0
18 -77 0
5 -77 0
-19 -5 78 0
19 -78 0
5 -78 0
-20 -5 79 0
20 -79 0
5 -79 0
-21 -5 80 0
21 -80 0
5 -80 0
-22 -5 81 0
22 -81 0
5 -81 0
-23 -5 82 0
23 -82 0
5 -82 0
-24 -5 83 0
24 -83 0
5 -83 0
-25 -5 84 0
25 -84 0
5 -84 0
-14 -6 85 0
14 -85 0
6 -85 0
-15 -6 86 0
15 -86 0
6 -86 0
-16 -6 87 0
16 -87 0
6 -87 0
-17 -6 88 0
17 -88 0
6 -88 0
-18 -6 89 0
18 -89 0
6 -89 0
-19 -6 90 0
19 -90 0
6 -90 0
-20 -6 91 0
20 -91 0
6 -91 0
-21 -6 92 0
21 -92 0
6 -92 0
-22 -6 93 0
22 -93 0
6 -93 0
-23 -6 94 0
23 -94 0
6 -94 0
-24 -6 95 0
24 -95 0
6 -95 0
-25 -6 96 0
25 -96 0
6 -96 0
-14 -7 97 0
14 -97 0
7 -97 0
-15 -7 98 0
15 -98 0
7 -98 0
-16 -7 99 0
16 -99 0
7 -99 0
-17 -7 100 0
17 -100 0
7 -100 0
-18 -7 101 0
18 -101 0
7 -101 0
-19 -7 102 0
19 -102 0
7 -102 0
-20 -7 103 0
20 -103 0
7 -103 0
-21 -7 104 0
21 -104 0
7 -104 0
-22 -7 105 0
22 -105 0
7 -105 0
-23 -7 106 0
23 -106 0
7 -106 0
-24 -7 107 0
24 -107 0
7 -107 0
-25 -7 108 0
25 -108 0
7 -108 0
-14 -8 109 0
14 -109 0
8 -109 0
-15 -8 110 0
15 -110 0
8 -110 0
-16 -8 111 0
16 -111 0
8 -111 0
-17 -8 112 0
17 -112 0
8 -112 0
-18 -8 113 0
18 -113 0
8 -113 0
-19 -8 114 0
19 -114 0
8 -114 0
-20 -8 115 0
20 -115 0
8 -115 0
-21 -8 116 0
21 -116 0
8 -116 0
-22 -8 117 0
22 -117 0
8 -117 0
-23 -8 118 0
23 -118 0
8 -118 0
-24 -8 119 0
24 -119 0
8 -119 0
-25 -8 120 0
25 -120 0
8 -120 0
-14 -9 121 0
14 -121 0
9 -121 0
-15 -9 122 0
15 -122 0
9 -122 0
-16 -9 123 0
16 -123 0
9 -123 0
-17 -9 124 0
17 -124 0
9 -124 0
-18 -9 125 0
18 -125 0
9 -125 0
-19 -9 126 0
19 -126 0
9 -126 0
-20 -9 127 0
20 -127 0
9 -127 0
-21 -9 128 0
21 -128 0
9 -128 0
-22 -9 129 0
22 -129 0
9 -129 0
-23 -9 130 0
23 -130 0
9 -130 0
-24 -9 131 0
24 -131 0
9 -131 0
-25 -9 132 0
25 -132 0
9 -132 0
-14 -10 133 0
14 -133 0
10 -133 0
-15 -10 134 0
15 -134 0
10 -134 0
-16 -10 135 0
16 -135 0
10 -135 0
-17 -10 136 0
17 -136 0
10 -136 0
-18 -10 137 0
18 -137 0
10 -137 0
-19 -10 138 0
19 -138 0
10 -138 0
-20 -10 139 0
20 -139 0
10 -139 0
-21 -10 140 0
21 -140 0
10 -140 0
-22 -10 141 0
22 -141 0
10 -141 0
-23 -10 142 0
23 -142 0
10 -142 0
-24 -10 143 0
24 -143 0
10 -143 0
-25 -10 144 0
25 -144 0
10 -144 0
-14 -11 145 0
14 -145 0
11 -145 0
-15 -11 146 0
15 -146 0
11 -146 0
-16 -11 147 0
16 -147 0
11 -147 0
-17 -11 148 0
17 -148 0
11 -148 0
-18 -11 149 0
18 -149 0
11 -149 0
-19 -11 150 0
19 -150 0
11 -150 0
-20 -11 151 0
20 -151 0
11 -151 0
-21 -11 152 0
21 -152 0
11 -152 0
-22 -11 153 0
22 -153 0
11 -153 0
-23 -11 154 0
23 -154 0
11 -154 0
-24 -11 155 0
24 -155 0
11 -155 0
-25 -11 156 0
25 -156 0
11 -156 0
-14 -12 157 0
14 -157 0
12 -157 0
-15 -12 158 0
15 -158 0
12 -158 0
-16 -12 159 0
16 -159 0
12 -159 0
-17 -12 160 0
17 -160 0
12 -160 0
-18 -12 161 0
18 -161 0
12 -161 0
-19 -12 162 0
19 -162 0
12 -162 0
-20 -12 163 0
20 -163 0
12 -163 0
-21 -12 164 0
21 -164 0
12 -164 0
-22 -12 165 0
22 -165 0
12 -165 0
-23 -12 166 0
23 -166 0
12 -166 0
-24 -12 167 0
24 -167 0
12 -167 0
-25 -12 168 0
25 -168 0
12 -168 0
-14 -13 169 0
14 -169 0
13 -169 0
-15 -13 170 0
15 -170 0
13 -170 0
-16 -13 171 0
16 -171 0
13 -171 0
-17 -13 172 0
17 -172 0
13 -172 0
-18 -13 173 0
18 -173 0
13 -173 0
-19 -13 174 0
19 -174 0
13 -174 0
-20 -13 175 0
20 -175 0
13 -175 0
-21 -13 176 0
21 -176 0
13 -176 0
-22 -13 177 0
22 -177 0
13 -177 0
-23 -13 178 0
23 -178 0
13 -178 0
-24 -13 179 0
24 -179 0
13 -179 0
-25 -13 180 0
25 -180 0
13 -180 0
38 49 -27 0
-38 -49 -27 0
38 -49 27 0
-38 49 27 0
-38 -49 247 0
38 -247 0
49 -247 0
39 50 247 -181 0
39 -50 -247 -181 0
39 -50 247 181 0
39 50 -247 181 0
-39 50 247 181 0
-39 -50 -247 181 0
-39 -50 247 -181 0
-39 50 -247 -181 0
39 50 -248 0
39 247 -248 0
39 -50 -247 248 0
-39 50 247 -248 0
-39 -50 248 0
-39 -247 248 0
40 51 248 -182 0
40 -51 -248 -182 0
40 -51 248 182 0
40 51 -248 182 0
-40 51 248 182 0
-40 -51 -248 182 0
-40 -51 248 -182 0
-40 51 -248 -182 0
40 51 -249 0
40 248 -249 0
40 -51 -248 249 0
-40 51 248 -249 0
-40 -51 249 0
-40 -248 249 0
41 52 249 -183 0
41 -52 -249 -183 0
41 -52 249 183 0
41 52 -249 183 0
-41 52 249 183 0
-41 -52 -249 183 0
-41 -52 249 -183 0
-41 52 -249 -183 0
41 52 -250 0
41 249 -250 0
41 -52 -249 250 0
-41 52 249 -250 0
-41 -52 250 0
-41 -249 250 0
42 53 250 -184 0
42 -53 -250 -184 0
42 -53 250 184 0
42 53 -250 184 0
-42 53 250 184 0
-42 -53 -250 184 0
-42 -53 250 -184 0
-42 53 -250 -184 0
42 53 -251 0
42 250 -251 0
42 -53 -250 251 0
-42 53 250 -251 0
-42 -53 251 0
-42 -250 251 0
43 54 251 -185 0
43 -54 -251 -185 0
43 -54 251 185 0
43 54 -251 185 0
-43 54 251 185 0
-43 -54 -251 185 0
-43 -54 251 -185 0
-43 54 -251 -185 0
43 54 -252 0
43 251 -252 0
43 -54 -251 252 0
-43 54 251 -252 0
-43 -54 252 0
-43 -251 252 0
44 55 252 -186 0
44 -55 -252 -186 0
44 -55 252 186 0
44 55 -252 186 0
-44 55 252 186 0
-44 -55 -252 186 0
-44 -55 252 -186 0
-44 55 -252 -186 0
44 55 -253 0
44 252 -253 0
44 -55 -252 253 0
-44 55 252 -253 0
-44 -55 253 0
-44 -252 253 0
45 56 253 -187 0
45 -56 -253 -187 0
45 -56 253 187 0
45 56 -253 187 0
-45 56 253 187 0
-45 -56 -253 187 0
-45 -56 253 -187 0
-45 56 -253 -187 0
45 56 -254 0
45 253 -254 0
45 -56 -253 254 0
-45 56 253 -254 0
-45 -56 254 0
-45 -253 254 0
46 57 254 -188 0
46 -57 -254 -188 0
46 -57 254 188 0
46 57 -254 188 0
-46 57 254 188 0
-46 -57 -254 188 0
-46 -57 254 -188 0
-46 57 -254 -188 0
46 57 -255 0
46 254 -255 0
46 -57 -254 255 0
-46 57 254 -255 0
-46 -57 255 0
-46 -254 255 0
47 58 255 -189 0
47 -58 -255 -189 0
47 -58 255 189 0
47 58 -255 189 0
-47 58 255 189 0
-47 -58 -255 189 0
-47 -58 255 -189 0
-47 58 -255 -189 0
47 58 -256 0
47 255 -256 0
47 -58 -255 256 0
-47 58 255 -256 0
-47 -58 256 0
-47 -255 256 0
48 59 256 -190 0
48 -59 -256 -190 0
48 -59 256 190 0
48 59 -256 190 0
-48 59 256 190 0
-48 -59 -256 190 0
-48 -59 256 -190 0
-48 59 -256 -190 0
48 59 -236 0
48 256 -236 0
48 -59 -256 236 0
-48 59 256 -236 0
-48 -59 236 0
-48 -256 236 0
181 61 -28 0
-181 -61 -28 0
181 -61 28 0
-181 61 28 0
-181 -61 257 0
181 -257 0
61 -257 0
182 62 257 -191 0
182 -62 -257 -191 0
182 -62 257 191 0
182 62 -257 191 0
-182 62 257 191 0
-182 -62 -257 191 0
-182 -62 257 -191 0
-182 62 -257 -191 0
182 62 -258 0
182 257 -258 0
182 -62 -257 258 0
-182 62 257 -258 0
-182 -62 258 0
-182 -257 258 0
183 63 258 -192 0
183 -63 -258 -192 0
183 -63 258 192 0
183 63 -258 192 0
-183 63 258 192 0
-183 -63 -258 192 0
-183 -63 258 -192 0
-183 63 -258 -192 0
183 63 -259 0
183 258 -259 0
183 -63 -258 259 0
-183 63 258 -259 0
-183 -63 259 0
-183 -258 259 0
184 64 259 -193 0
184 -64 -259 -193 0
184 -64 259 193 0
184 64 -259 193 0
-184 64 259 193 0
-184 -64 -259 193 0
-184 -64 259 -193 0
-184 64 -259 -193 0
184 64 -260 0
184 259 -260 0
184 -64 -259 260 0
-184 64 259 -260 0
-184 -64 260 0
-184 -259 260 0
185 65 260 -194 0
185 -65 -260 -194 0
185 -65 260 194 0
185 65 -260 194 0
-185 65 260 194 0
-185 -65 -260 194 0
-185 -65 260 -194 0
-185 65 -260 -194 0
185 65 -261 0
185 260 -261 0
185 -65 -260 261 0
-185 65 260 -261 0
-185 -65 261 0
-185 -260 261 0
186 66 261 -195 0
186 -66 -261 -195 0
186 -66 261 195 0
186 66 -261 195 0
-186 66 261 195 0
-186 -66 -261 195 0
-186 -66 261 -195 0
-186 66 -261 -195 0
186 66 -262 0
186 261 -262 0
186 -66 -261 262 0
-186 66 261 -262 0
-186 -66 262 0
-186 -261 262 0
187 67 262 -196 0
187 -67 -262 -196 0
187 -67 262 196 0
187 67 -262 196 0
-187 67 262 196 0
-187 -67 -262 196 0
-187 -67 262 -196 0
-187 67 -262 -196 0
187 67 -263 0
187 262 -263 0
187 -67 -262 263 0
-187 67 262 -263 0
-187 -67 263 0
-187 -262 263 0
188 68 263 -197 0
188 -68 -263 -197 0
188 -68 263 197 0
188 68 -263 197 0
-188 68 263 197 0
-188 -68 -263 197 0
-188 -68 263 -197 0
-188 68 -263 -197 0
188 68 -264 0
188 263 -264 0
188 -68 -263 264 0
-188 68 263 -264 0
-188 -68 264 0
-188 -263 264 0
189 69 264 -198 0
189 -69 -264 -198 0
189 -69 264 198 0
189 69 -264 198 0
-189 69 264 198 0
-189 -69 -264 198 0
-189 -69 264 -198 0
-189 69 -264 -198 0
189 69 -265 0
189 264 -265 0
189 -69 -264 265 0
-189 69 264 -265 0
-189 -69 265 0
-189 -264 265 0
190 70 265 -199 0
190 -70 -265 -199 0
190 -70 265 199 0
190 70 -265 199 0
-190 70 265 199 0
-190 -70 -265 199 0
-190 -70 265 -199 0
-190 70 -265 -199 0
190 70 -237 0
190 265 -237 0
190 -70 -265 237 0
-190 70 265 -237 0
-190 -70 237 0
-190 -265 237 0
191 73 -29 0
-191 -73 -29 0
191 -73 29 0
-191 73 29 0
-191 -73 266 0
191 -266 0
73 -266 0
192 74 266 -200 0
192 -74 -266 -200 0
192 -74 266 200 0
192 74 -266 200 0
-192 74 266 200 0
-192 -74 -266 200 0
-192 -74 266 -200 0
-192 74 -266 -200 0
192 74 -267 0
192 266 -267 0
192 -74 -266 267 0
-192 74 266 -267 0
-192 -74 267 0
-192 -266 267 0
193 75 267 -201 0
193 -75 -267 -201 0
193 -75 267 201 0
193 75 -267 201 0
-193 75 267 201 0
-193 -75 -267 201 0
-193 -75 267 -201 0
-193 75 -267 -201 0
193 75 -268 0
193 267 -268 0
193 -75 -267 268 0
-193 75 267 -268 0
-193 -75 268 0
-193 -267 268 0
194 76 268 -202 0
194 -76 -268 -202 0
194 -76 268 202 0
194 76 -268 202 0
-194 76 268 202 0
-194 -76 -268 202 0
-194 -76 268 -202 0
-194 76 -268 -202 0
194 76 -269 0
194 268 -269 0
194 -76 -268 269 0
-194 76 268 -269 0
-194 -76 269 0
-194 -268 269 0
195 77 269 -203 0
195 -77 -269 -203 0
195 -77 269 203 0
195 77 -269 203 0
-195 77 269 203 0
-195 -77 -269 203 0
-195 -77 269 -203 0
-195 77 -269 -203 0
195 77 -270 0
195 269 -270 0
195 -77 -269 270 0
-195 77 269 -270 0
-195 -77 270 0
-195 -269 270 0
196 78 270 -204 0
196 -78 -270 -204 0
196 -78 270 204 0
196 78 -270 204 0
-196 78 270 204 0
-196 -78 -270 204 0
-196 -78 270 -204 0
-196 78 -270 -204 0
196 78 -271 0
196 270 -271 0
196 -78 -270 271 0
-196 78 270 -271 0
-196 -78 271 0
-196 -270 271 0
197 79 271 -205 0
197 -79 -271 -205 0
197 -79 271 205 0
197 79 -271 205 0
-197 79 271 205 0
-197 -79 -271 205 0
-197 -79 271 -205 0
-197 79 -271 -205 0
197 79 -272 0
197 271 -272 0
197 -79 -271 272 0
-197 79 271 -272 0
-197 -79 272 0
-197 -271 272 0
198 80 272 -206 0
198 -80 -272 -206 0
198 -80 272 206 0
198 80 -272 206 0
-198 80 272 206 0
-198 -80 -272 206 0
-198 -80 272 -206 0
-198 80 -272 -206 0
198 80 -273 0
198 272 -273 0
198 -80 -272 273 0
-198 80 272 -273 0
-198 -80 273 0
-198 -272 273 0
199 81 273 -207 0
199 -81 -273 -207 0
199 -81 273 207 0
199 81 -273 207 0
-199 81 273 207 0
-199 -81 -273 207 0
-199 -81 273 -207 0
-199 81 -273 -207 0
199 81 -238 0
199 273 -238 0
199 -81 -273 238 0
-199 81 273 -238 0
-199 -81 238 0
-199 -273 238 0
200 85 -30 0
-200 -85 -30 0
200 -85 30 0
-200 85 30 0
-200 -85 274 0
200 -274 0
85 -274 0
201 86 274 -208 0
201 -86 -274 -208 0
201 -86 274 208 0
201 86 -274 208 0
-201 86 274 208 0
-201 -86 -274 208 0
-201 -86 274 -208 0
-201 86 -274 -208 0
201 86 -275 0
201 274 -275 0
201 -86 -274 275 0
-201 86 274 -275 0
-201 -86 275 0
-201 -274 275 0
202 87 275 -209 0
202 -87 -275 -209 0
202 -87 275 209 0
202 87 -275 209 0
-202 87 275 209 0
-202 -87 -275 209 0
-202 -87 275 -209 0
-202 87 -275 -209 0
202 87 -276 0
202 275 -276 0
202 -87 -275 276 0
-202 87 275 -276 0
-202 -87 276 0
-202 -275 276 0
203 88 276 -210 0
203 -88 -276 -210 0
203 -88 276 210 0
203 88 -276 210 0
-203 88 276 210 0
-203 -88 -276 210 0
-203 -88 276 -210 0
-203 88 -276 -210 0
203 88 -277 0
203 276 -277 0
203 -88 -276 277 0
-203 88 276 -277 0
-203 -88 277 0
-203 -276 277 0
204 89 277 -211 0
204 -89 -277 -211 0
204 -89 277 211 0
204 89 -277 211 0
-204 89 277 211 0
-204 -89 -277 211 0
-204 -89 277 -211 0
-204 89 -277 -211 0
204 89 -278 0
204 277 -278 0
204 -89 -277 278 0
-204 89 277 -278 0
-204 -89 278 0
-204 -277 278 0
205 90 278 -212 0
205 -90 -278 -212 0
205 -90 278 212 0
205 90 -278 212 0
-205 90 278 212 0
-205 -90 -278 212 0
-205 -90 278 -212 0
-205 90 -278 -212 0
205 90 -279 0
205 278 -279 0
205 -90 -278 279 0
-205 90 278 -279 0
-205 -90 279 0
-205 -278 279 0
206 91 279 -213 0
206 -91 -279 -213 0
206 -91 279 213 0
206 91 -279 213 0
-206 91 279 213 0
-206 -91 -279 213 0
-206 -91 279 -213 0
-206 91 -279 -213 0
206 91 -280 0
206 279 -280 0
206 -91 -279 280 0
-206 91 279 -280 0
-206 -91 280 0
-206 -279 280 0
207 92 280 -214 0
207 -92 -280 -214 0
207 -92 280 214 0
207 92 -280 214 0
-207 92 280 214 0
-207 -92 -280 214 0
-207 -92 280 -214 0
-207 92 -280 -214 0
207 92 -239 0
207 280 -239 0
207 -92 -280 239 0
-207 92 280 -239 0
-207 -92 239 0
-207 -280 239 0
208 97 -31 0
-208 -97 -31 0
208 -97 31 0
-208 97 31 0
-208 -97 281 0
208 -281 0
97 -281 0
209 98 281 -215 0
209 -98 -281 -215 0
209 -98 281 215 0
209 98 -281 215 0
-209 98 281 215 0
-209 -98 -281 215 0
-209 -98 281 -215 0
-209 98 -281 -215 0
209 98 -282 0
209 281 -282 0
209 -98 -281 282 0
-209 98 281 -282 0
-209 -98 282 0
-209 -281 282 0
210 99 282 -216 0
210 -99 -282 -216 0
210 -99 282 216 0
210 99 -282 216 0
-210 99 282 216 0
-210 -99 -282 216 0
-210 -99 282 -216 0
-210 99 -282 -216 0
210 99 -283 0
210 282 -283 0
210 -99 -282 283 0
-210 99 282 -283 0
-210 -99 283 0
-210 -282 283 0
211 100 283 -217 0
211 -100 -283 -217 0
211 -100 283 217 0
211 100 -283 217 0
-211 100 283 217 0
-211 -100 -283 217 0
-211 -100 283 -217 0
-211 100 -283 -217 0
211 100 -284 0
211 283 -284 0
211 -100 -283 284 0
-211 100 283 -284 0
-211 -100 284 0
-211 -283 284 0
212 101 284 -218 0
212 -101 -284 -218 0
212 -101 284 218 0
212 101 -284 218 0
-212 101 284 218 0
-212 -101 -284 218 0
-212 -101 284 -218 0
-212 101 -284 -218 0
212 101 -285 0
212 284 -285 0
212 -101 -284 285 0
-212 101 284 -285 0
-212 -101 285 0
-212 -284 285 0
213 102 285 -219 0
213 -102 -285 -219 0
213 -102 285 219 0
213 102 -285 219 0
-213 102 285 219 0
-213 -102 -285 219 0
-213 -102 285 -219 0
-213 102 -285 -219 0
213 102 -286 0
213 285 -286 0
213 -102 -285 286 0
-213 102 285 -286 0
-213 -102 286 0
-213 -285 286 0
214 103 286 -220 0
214 -103 -286 -220 0
214 -103 286 220 0
214 103 -286 220 0
-214 103 286 220 0
-214 -103 -286 220 0
-214 -103 286 -220 0
-214 103 -286 -220 0
214 103 -240 0
214 286 -240 0
214 -103 -286 240 0
-214 103 286 -240 0
-214 -103 240 0
-214 -286 240 0
215 109 -32 0
-215 -109 -32 0
215 -109 32 0
-215 109 32 0
-215 -109 287 0
215 -287 0
109 -287 0
216 110 287 -221 0
216 -110 -287 -221 0
216 -110 287 221 0
216 110 -287 221 0
-216 110 287 221 0
-216 -110 -287 221 0
-216 -110 287 -221 0
-216 110 -287 -221 0
216 110 -288 0
216 287 -288 0
216 -110 -287 288 0
-216 110 287 -288 0
-216 -110 288 0
-216 -287 288 0
217 111 288 -222 0
217 -111 -288 -222 0
217 -111 288 222 0
217 111 -288 222 0
-217 111 288 222 0
-217 -111 -288 222 0
-217 -111 288 -222 0
-217 111 -288 -222 0
217 111 -289 0
217 288 -289 0
217 -111 -288 289 0
-217 111 288 -289 0
-217 -111 289 0
-217 -288 289 0
218 112 289 -223 0
218 -112 -289 -223 0
218 -112 289 223 0
218 112 -289 223 0
-218 112 289 223 0
-218 -112 -289 223 0
-218 -112 289 -223 0
-218 112 -289 -223 0
218 112 -290 0
218 289 -290 0
218 -112 -289 290 0
-218 112 289 -290 0
-218 -112 290 0
-218 -289 290 0
219 113 290 -224 0
219 -113 -290 -224 0
219 -113 290 224 0
219 113 -290 224 0
-219 113 290 224 0
-219 -113 -290 224 0
-219 -113 290 -224 0
-219 113 -290 -224 0
219 113 -291 0
219 290 -291 0
219 -113 -290 291 0
-219 113 290 -291 0
-219 -113 291 0
-219 -290 291 0
220 114 291 -225 0
220 -114 -291 -225 0
220 -114 291 225 0
220 114 -291 225 0
-220 114 291 225 0
-220 -114 -291 225 0
-220 -114 291 -225 0
-220 114 -291 -225 0
220 114 -241 0
220 291 -241 0
220 -114 -291 241 0
-220 114 291 -241 0
-220 -114 241 0
-220 -291 241 0
221 121 -33 0
-221 -121 -33 0
221 -121 33 0
-221 121 33 0
-221 -121 292 0
221 -292 0
121 -292 0
222 122 292 -226 0
222 -122 -292 -226 0
222 -122 292 226 0
222 122 -292 226 0
-222 122 292 226 0
-222 -122 -292 226 0
-222 -122 292 -226 0
-222 122 -292 -226 0
222 122 -293 0
222 292 -293 0
222 -122 -292 293 0
-222 122 292 -293 0
-222 -122 293 0
-222 -292 293 0
223 123 293 -227 0
223 -123 -293 -227 0
223 -123 293 227 0
223 123 -293 227 0
-223 123 293 227 0
-223 -123 -293 227 0
-223 -123 293 -227 0
-223 123 -293 -227 0
223 123 -294 0
223 293 -294 0
223 -123 -293 294 0
-223 123 293 -294 0
-223 -123 294 0
-223 -293 294 0
224 124 294 -228 0
224 -124 -294 -228 0
224 -124 294 228 0
224 124 -294 228 0
-224 124 294 228 0
-224 -124 -294 228 0
-224 -124 294 -228 0
-224 124 -294 -228 0
224 124 -295 0
224 294 -295 0
224 -124 -294 295 0
-224 124 294 -295 0
-224 -124 295 0
-224 -294 295 0
225 125 295 -229 0
225 -125 -295 -229 0
225 -125 295 229 0
225 125 -295 229 0
-225 125 295 229 0
-225 -125 -295 229 0
-225 -125 295 -229 0
-225 125 -295 -229 0
225 125 -242 0
225 295 -242 0
225 -125 -295 242 0
-225 125 295 -242 0
-225 -125 242 0
-225 -295 242 0
226 133 -34 0
-226 -133 -34 0
226 -133 34 0
-226 133 34 0
-226 -133 296 0
226 -296 0
133 -296 0
227 134 296 -230 0
227 -134 -296 -230 0
227 -134 296 230 0
227 134 -296 230 0
-227 134 296 230 0
-227 -134 -296 230 0
-227 -134 296 -230 0
-227 134 -296 -230 0
227 134 -297 0
227 296 -297 0
227 -134 -296 297 0
-227 134 296 -297 0
-227 -134 297 0
-227 -296 297 0
228 135 297 -231 0
228 -135 -297 -231 0
228 -135 297 231 0
228 135 -297 231 0
-228 135 297 231 0
-228 -135 -297 231 0
-228 -135 297 -231 0
-228 135 -297 -231 0
228 135 -298 0
228 297 -298 0
228 -135 -297 298 0
-228 135 297 -298 0
-228 -135 298 0
-228 -297 298 0
229 136 298 -232 0
229 -136 -298 -232 0
229 -136 298 232 0
229 136 -298 232 0
-229 136 298 232 0
-229 -136 -298 232 0
-229 -136 298 -232 0
-229 136 -298 -232 0
229 136 -243 0
229 298 -243 0
229 -136 -298 243 0
-229 136 298 -243 0
-229 -136 243 0
-229 -298 243 0
230 145 -35 0
-230 -145 -35 0
230 -145 35 0
-230 145 35 0
-230 -145 299 0
230 -299 0
145 -299 0
231 146 299 -233 0
231 -146 -299 -233 0
231 -146 299 233 0
231 146 -299 233 0
-231 146 299 233 0
-231 -146 -299 233 0
-231 -146 299 -233 0
-231 146 -299 -233 0
231 146 -300 0
231 299 -300 0
231 -146 -299 300 0
-231 146 299 -300 0
-231 -146 300 0
-231 -299 300 0
232 147 300 -234 0
232 -147 -300 -234 0
232 -147 300 234 0
232 147 -300 234 0
-232 147 300 234 0
-232 -147 -300 234 0
-232 -147 300 -234 0
-232 147 -300 -234 0
232 147 -244 0
232 300 -244 0
232 -147 -300 244 0
-232 147 300 -244 0
-232 -147 244 0
-232 -300 244 0
233 157 -36 0
-233 -157 -36 0
233 -157 36 0
-233 157 36 0
-233 -157 301 0
233 -301 0
157 -301 0
234 158 301 -235 0
234 -158 -301 -235 0
234 -158 301 235 0
234 158 -301 235 0
-234 158 301 235 0
-234 -158 -301 235 0
-234 -158 301 -235 0
-234 158 -301 -235 0
234 158 -245 0
234 301 -245 0
234 -158 -301 245 0
-234 158 301 -245 0
-234 -158 245 0
-234 -301 245 0
235 169 -37 0
-235 -169 -37 0
235 -169 37 0
-235 169 37 0
-235 -169 246 0
235 -246 0
169 -246 0
236 237 238 239 240 241 242 243 244 245 246 60 71 72 82 83 84 93 94 95 96 104 105 106 107 108 115 116 117 118 119 120 126 127 128 129 130 131 132 137 138 139 140 141 142 143 144 148 149 150 151 152 153 154 155 156 159 160 161 162 163 164 165 166 167 168 170 171 172 173 174 175 176 177 178 179 180 -1 0
-236 1 0
-237 1 0
-238 1 0
-239 1 0
-240 1 0
-241 1 0
-242 1 0
-243 1 0
-244 1 0
-245 1 0
-246 1 0
-60 1 0
-71 1 0
-72 1 0
-82 1 0
-83 1 0
-84 1 0
-93 1 0
-94 1 0
-95 1 0
-96 1 0
-104 1 0
-105 1 0
-106 1 0
-107 1 0
-108 1 0
-115 1 0
-116 1 0
-117 1 0
-118 1 0
-119 1 0
-120 1 0
-126 1 0
-127 1 0
-128 1 0
-129 1 0
-130 1 0
-131 1 0
-132 1 0
-137 1 0
-138 1 0
-139 1 0
-140 1 0
-141 1 0
-142 1 0
-143 1 0
-144 1 0
-148 1 0
-149 1 0
-150 1 0
-151 1 0
-152 1 0
-153 1 0
-154 1 0
-155 1 0
-156 1 0
-159 1 0
-160 1 0
-161 1 0
-162 1 0
-163 1 0
-164 1 0
-165 1 0
-166 1 0
-167 1 0
-168 1 0
-170 1 0
-171 1 0
-172 1 0
-173 1 0
-174 1 0
-175 1 0
-176 1 0
-177 1 0
-178 1 0
-179 1 0
-180 1 0
302 0
303 0
304 0
305 0
306 0
307 0
-308 0
309 0
310 0
311 0
-312 0
313 0
26 302 -314 0
-26 -302 -314 0
26 -302 314 0
-26 302 314 0
27 303 -315 0
-27 -303 -315 0
27 -303 315 0
-27 303 315 0
28 304 -316 0
-28 -304 -316 0
28 -304 316 0
-28 304 316 0
29 305 -317 0
-29 -305 -317 0
29 -305 317 0
-29 305 317 0
30 306 -318 0
-30 -306 -318 0
30 -306 318 0
-30 306 318 0
31 307 -319 0
-31 -307 -319 0
31 -307 319 0
-31 307 319 0
32 308 -320 0
-32 -308 -320 0
32 -308 320 0
-32 308 320 0
33 309 -321 0
-33 -309 -321 0
33 -309 321 0
-33 309 321 0
34 310 -322 0
-34 -310 -322 0
34 -310 322 0
-34 310 322 0
35 311 -323 0
-35 -311 -323 0
35 -311 323 0
-35 311 323 0
36 312 -324 0
-36 -312 -324 0
36 -312 324 0
-36 312 324 0
37 313 -325 0
-37 -313 -325 0
37 -313 325 0
-37 313 325 0
314 315 316 317 318 319 320 321 322 323 324 325 -1 0
-314 1 0
-315 1 0
-316 1 0
-317 1 0
-318 1 0
-319 1 0
-320 1 0
-321 1 0
-322 1 0
-323 1 0
-324 1 0
-325 1 0
1 -2 -3 -4 -5 -6 -7 8 -9 -10 -11 12 -13 -14 15 16 17 18 19 20 21 22 23 24 25 -26 -27 -28 -29 -30 -31 32 -33 -34 -35 36 -37 38 39 40 41 42 43 44 45 46 47 48 -49 50 51 52 53 54 55 56 57 58 59 60 -61 62 63 64 65 66 67 68 69 70 71 72 -73 74 75 76 77 78 79 80 81 82 83 84 -85 86 87 88 89 90 91 92 93 94 95 96 -97 98 99 100 101 102 103 104 105 106 107 108 109 110 111 112 113 114 115 116 117 118 119 120 -121 122 123 124 125 126 127 128 129 130 131 132 -133 134 135 136 137 138 139 140 141 142 143 144 -145 146 147 148 149 150 151 152 153 154 155 156 157 158 159 160 161 162 163 164 165 166 167 168 -169 170 171 172 173 174 175 176 177 178 179 180 181 182 183 184 185 186 187 188 189 190 191 192 193 194 195 196 197 198 199 200 201 202 203 204 205 206 207 208 209 210 211 212 213 214 215 216 217 218 219 220 221 222 223 224 225 226 227 228 229 230 231 232 233 234 235 236 237 238 239 240 241 242 243 244 245 246 247 248 249 250 251 252 253 254 255 256 257 258 259 260 261 262 263 264 265 266 267 268 269 270 271 272 273 274 275 276 277 278 279 280 281 282 283 284 285 286 287 288 289 290 291 292 293 294 295 296 297 298 299 300 301 -302 -303 -304 -305 -306 -307 308 -309 -310 -311 312 -313 314 315 316 317 318 319 320 321 322 323 324 325 0
1 -2 3 4 5 6 7 8 9 10 11 12 13 -14 -15 -16 -17 -18 -19 20 -21 -22 -23 24 -25 -26 -27 -28 -29 -30 -31 32 -33 -34 -35 36 -37 -38 -39 -40 -41 -42 43 -44 -45 -46 47 -48 49 50 51 52 53 54 55 56 57 58 59 60 61 62 63 64 65 66 67 68 69 70 71 72 73 74 75 76 77 78 79 80 81 82 83 84 85 86 87 88 89 90 91 92 93 94 95 96 97 98 99 100 101 102 103 104 105 106 107 108 109 110 111 112 113 114 115 116 117 118 119 120 121 122 123 124 125 126 127 128 129 130 131 132 133 134 135 136 137 138 139 140 141 142 143 144 145 146 147 148 149 150 151 152 153 154 155 156 157 158 159 160 161 162 163 164 165 166 167 168 169 170 171 172 173 174 175 176 177 178 179 180 -181 -182 -183 -184 185 -186 -187 -188 189 -190 -191 -192 -193 194 -195 -196 -197 198 -199 -200 -201 202 -203 -204 -205 206 -207 -208 209 -210 -211 -212 213 -214 215 -216 -217 -218 219 -220 -221 -222 -223 224 -225 -226 -227 228 -229 -230 231 -232 233 -234 -235 236 237 238 239 240 241 242 243 244 245 246 247 248 249 250 251 252 253 254 255 256 257 258 259 260 261 262 263 264 265 266 267 268 269 270 271 272 273 274 275 276 277 278 279 280 281 282 283 284 285 286 287 288 289 290 291 292 293 294 295 296 297 298 299 300 301 -302 -303 -304 -305 -306 -307 308 -309 -310 -311 312 -313 314 315 316 317 318 319 320 321 322 323 324 325 0
1 -2 -3 -4 -5 -6 7 8 9 10 11 12 13 -14 15 16 17 18 -19 -20 21 22 23 24 25 -26 -27 -28 -29 -30 -31 32 -33 -34 -35 36 -37 38 39 40 41 -42 -43 44 45 46 47 48 -49 50 51 52 53 -54 -55 56 57 58 59 60 -61 62 63 64 65 -66 -67 68 69 70 71 72 -73 74 75 76 77 -78 -79 80 81 82 83 84 -85 86 87 88 89 -90 -91 92 93 94 95 96 97 98 99 100 101 102 103 104 105 106 107 108 109 110 111 112 113 114 115 116 117 118 119 120 121 122 123 124 125 126 127 128 129 130 131 132 133 134 135 136 137 138 139 140 141 142 143 144 145 146 147 148 149 150 151 152 153 154 155 156 157 158 159 160 161 162 163 164 165 166 167 168 169 170 171 172 173 174 175 176 177 178 179 180 181 182 183 -184 185 186 -187 188 189 190 191 192 -193 194 -195 196 -197 198 199 200 -201 202 -203 -204 205 -206 207 -208 209 -210 -211 -212 213 -214 215 -216 -217 -218 219 -220 -221 -222 -223 224 -225 -226 -227 228 -229 -230 231 -232 233 -234 -235 236 237 238 239 240 241 242 243 244 245 246 247 248 249 250 251 -252 -253 254 255 256 257 258 259 260 261 262 -263 264 265 266 267 268 269 270 271 -272 273 274 275 276 277 278 279 -280 281 282 283 284 285 286 287 288 289 290 291 292 293 294 295 296 297 298 299 300 301 -302 -303 -304 -305 -306 -307 308 -309 -310 -311 312 -313 314 315 316 317 318 319 320 321 322 323 324 325 0
1 -2 3 4 5 6 -7 -8 9 10 11 12 13 -14 -15 -16 -17 -18 19 20 21 22 23 24 25 -26 -27 -28 -29 -30 -31 32 -33 -34 -35 36 -37 -38 -39 -40 -41 42 43 44 45 46 47 48 49 50 51 52 53 54 55 56 57 58 59 60 61 62 63 64 65 66 67 68 69 70 71 72 73 74 75 76 77 78 79 80 81 82 83 84 85 86 87 88 89 90 91 92 93 94 95 96 -97 -98 -99 -100 -101 102 103 104 105 106 107 108 -109 -110 -111 -112 -113 114 115 116 117 118 119 120 121 122 123 124 125 126 127 128 129 130 131 132 133 134 135 136 137 138 139 140 141 142 143 144 145 146 147 148 149 150 151 152 153 154 155 156 157 158 159 160 161 162 163 164 165 166 167 168 169 170 171 172 173 174 175 176 177 178 179 180 -181 -182 -183 184 185 186 187 188 189 190 -191 -192 193 194 195 196 197 198 199 -200 201 202 203 204 205 206 207 208 209 210 211 212 213 214 -215 -216 -217 -218 219 220 -221 -222 -223 224 -225 -226 -227 228 -229 -230 231 -232 233 -234 -235 236 237 238 239 240 241 242 243 244 245 246 247 248 249 250 251 252 253 254 255 256 257 258 259 260 261 262 263 264 265 266 267 268 269 270 271 272 273 274 275 276 277 278 279 280 281 282 283 284 285 286 -287 -288 -289 -290 -291 292 293 294 295 296 297 298 299 300 301 -302 -303 -304 -305 -306 -307 308 -309 -310 -311 312 -313 314 315 316 317 318 319 320 321 322 323 324 325 0
